p wcnf 434 1536
w -2 0.367879 0
w 2 2.718282 0
w -3 0.367879 0
w 3 2.718282 0
w -4 0.367879 0
w 4 2.718282 0
w -5 0.367879 0
w 5 2.718282 0
w -6 0.367879 0
w 6 2.718282 0
w -7 0.367879 0
w 7 2.718282 0
w -8 0.367879 0
w 8 2.718282 0
w -9 0.367879 0
w 9 2.718282 0
w -10 0.367879 0
w 10 2.718282 0
w -11 0.367879 0
w 11 2.718282 0
w -12 0.367879 0
w 12 2.718282 0
w -13 0.367879 0
w 13 2.718282 0
w -14 0.367879 0
w 14 2.718282 0
w -15 0.367879 0
w 15 2.718282 0
w -16 0.367879 0
w 16 2.718282 0
w -17 0.367879 0
w 17 2.718282 0
w -18 0.367879 0
w 18 2.718282 0
w -19 0.367879 0
w 19 2.718282 0
w -20 0.367879 0
w 20 2.718282 0
w -22 0.367879 0
w 22 2.718282 0
w -23 0.367879 0
w 23 2.718282 0
w -24 0.367879 0
w 24 2.718282 0
w -25 0.367879 0
w 25 2.718282 0
w -26 0.367879 0
w 26 2.718282 0
w -27 0.367879 0
w 27 2.718282 0
w -28 0.367879 0
w 28 2.718282 0
w -29 0.367879 0
w 29 2.718282 0
w -30 0.367879 0
w 30 2.718282 0
w -31 0.367879 0
w 31 2.718282 0
w -32 0.367879 0
w 32 2.718282 0
w -33 0.367879 0
w 33 2.718282 0
w -34 0.367879 0
w 34 2.718282 0
w -36 0.367879 0
w 36 2.718282 0
w -37 0.367879 0
w 37 2.718282 0
w -38 0.367879 0
w 38 2.718282 0
w -39 0.367879 0
w 39 2.718282 0
w -40 0.367879 0
w 40 2.718282 0
w -41 0.367879 0
w 41 2.718282 0
w -42 0.367879 0
w 42 2.718282 0
w -43 0.367879 0
w 43 2.718282 0
w -44 0.367879 0
w 44 2.718282 0
w -45 0.367879 0
w 45 2.718282 0
w -46 0.367879 0
w 46 2.718282 0
w -47 0.367879 0
w 47 2.718282 0
w -48 0.367879 0
w 48 2.718282 0
w -49 0.367879 0
w 49 2.718282 0
w -50 0.367879 0
w 50 2.718282 0
w -52 0.367879 0
w 52 2.718282 0
w -53 0.367879 0
w 53 2.718282 0
w -54 0.367879 0
w 54 2.718282 0
w -55 0.367879 0
w 55 2.718282 0
w -56 0.367879 0
w 56 2.718282 0
w -57 0.367879 0
w 57 2.718282 0
w -58 0.367879 0
w 58 2.718282 0
w -59 0.367879 0
w 59 2.718282 0
w -60 0.367879 0
w 60 2.718282 0
w -61 0.367879 0
w 61 2.718282 0
w -62 0.367879 0
w 62 2.718282 0
w -63 0.367879 0
w 63 2.718282 0
w -64 0.367879 0
w 64 2.718282 0
w -65 0.367879 0
w 65 2.718282 0
w -67 0.367879 0
w 67 2.718282 0
w -68 0.367879 0
w 68 2.718282 0
w -69 0.367879 0
w 69 2.718282 0
w -70 0.367879 0
w 70 2.718282 0
w -71 0.367879 0
w 71 2.718282 0
w -72 0.367879 0
w 72 2.718282 0
w -73 0.367879 0
w 73 2.718282 0
w -74 0.367879 0
w 74 2.718282 0
w -75 0.367879 0
w 75 2.718282 0
w -76 0.367879 0
w 76 2.718282 0
w -77 0.367879 0
w 77 2.718282 0
w -78 0.367879 0
w 78 2.718282 0
w -79 0.367879 0
w 79 2.718282 0
w -80 0.367879 0
w 80 2.718282 0
w -82 0.367879 0
w 82 2.718282 0
w -83 0.367879 0
w 83 2.718282 0
w -84 0.367879 0
w 84 2.718282 0
w -85 0.367879 0
w 85 2.718282 0
w -86 0.367879 0
w 86 2.718282 0
w -87 0.367879 0
w 87 2.718282 0
w -88 0.367879 0
w 88 2.718282 0
w -89 0.367879 0
w 89 2.718282 0
w -90 0.367879 0
w 90 2.718282 0
w -91 0.367879 0
w 91 2.718282 0
w -92 0.367879 0
w 92 2.718282 0
w -93 0.367879 0
w 93 2.718282 0
w -94 0.367879 0
w 94 2.718282 0
w -96 0.367879 0
w 96 2.718282 0
w -97 0.367879 0
w 97 2.718282 0
w -98 0.367879 0
w 98 2.718282 0
w -99 0.367879 0
w 99 2.718282 0
w -100 0.367879 0
w 100 2.718282 0
w -101 0.367879 0
w 101 2.718282 0
w -103 0.367879 0
w 103 2.718282 0
w -104 0.367879 0
w 104 2.718282 0
w -105 0.367879 0
w 105 2.718282 0
w -106 0.367879 0
w 106 2.718282 0
w -107 0.367879 0
w 107 2.718282 0
w -108 0.367879 0
w 108 2.718282 0
w -109 0.367879 0
w 109 2.718282 0
w -110 0.367879 0
w 110 2.718282 0
w -111 0.367879 0
w 111 2.718282 0
w -112 0.367879 0
w 112 2.718282 0
w -113 0.367879 0
w 113 2.718282 0
w -114 0.367879 0
w 114 2.718282 0
w -115 0.367879 0
w 115 2.718282 0
w -116 0.367879 0
w 116 2.718282 0
w -117 0.367879 0
w 117 2.718282 0
w -118 0.367879 0
w 118 2.718282 0
w -119 0.367879 0
w 119 2.718282 0
w -120 0.367879 0
w 120 2.718282 0
w -121 0.367879 0
w 121 2.718282 0
w -123 0.367879 0
w 123 2.718282 0
w -124 0.367879 0
w 124 2.718282 0
w -125 0.367879 0
w 125 2.718282 0
w -126 0.367879 0
w 126 2.718282 0
w -127 0.367879 0
w 127 2.718282 0
w -128 0.367879 0
w 128 2.718282 0
w -129 0.367879 0
w 129 2.718282 0
w -130 0.367879 0
w 130 2.718282 0
w -131 0.367879 0
w 131 2.718282 0
w -132 0.367879 0
w 132 2.718282 0
w -133 0.367879 0
w 133 2.718282 0
w -134 0.367879 0
w 134 2.718282 0
w -135 0.367879 0
w 135 2.718282 0
w -136 0.367879 0
w 136 2.718282 0
w -137 0.367879 0
w 137 2.718282 0
w -138 0.367879 0
w 138 2.718282 0
w -139 0.367879 0
w 139 2.718282 0
w -140 0.367879 0
w 140 2.718282 0
w -142 0.367879 0
w 142 2.718282 0
w -143 0.367879 0
w 143 2.718282 0
w -144 0.367879 0
w 144 2.718282 0
w -145 0.367879 0
w 145 2.718282 0
w -146 0.367879 0
w 146 2.718282 0
w -147 0.367879 0
w 147 2.718282 0
w -148 0.367879 0
w 148 2.718282 0
w -149 0.367879 0
w 149 2.718282 0
w -150 0.367879 0
w 150 2.718282 0
w -151 0.367879 0
w 151 2.718282 0
w -152 0.367879 0
w 152 2.718282 0
w -154 0.367879 0
w 154 2.718282 0
w -155 0.367879 0
w 155 2.718282 0
w -156 0.367879 0
w 156 2.718282 0
w -157 0.367879 0
w 157 2.718282 0
w -158 0.367879 0
w 158 2.718282 0
w -159 0.367879 0
w 159 2.718282 0
w -160 0.367879 0
w 160 2.718282 0
w -161 0.367879 0
w 161 2.718282 0
w -162 0.367879 0
w 162 2.718282 0
w -163 0.367879 0
w 163 2.718282 0
w -165 0.367879 0
w 165 2.718282 0
w -166 0.367879 0
w 166 2.718282 0
w -167 0.367879 0
w 167 2.718282 0
w -168 0.367879 0
w 168 2.718282 0
w -169 0.367879 0
w 169 2.718282 0
w -170 0.367879 0
w 170 2.718282 0
w -171 0.367879 0
w 171 2.718282 0
w -172 0.367879 0
w 172 2.718282 0
w -173 0.367879 0
w 173 2.718282 0
w -174 0.367879 0
w 174 2.718282 0
w -175 0.367879 0
w 175 2.718282 0
w -176 0.367879 0
w 176 2.718282 0
w -178 0.367879 0
w 178 2.718282 0
w -179 0.367879 0
w 179 2.718282 0
w -180 0.367879 0
w 180 2.718282 0
w -181 0.367879 0
w 181 2.718282 0
w -182 0.367879 0
w 182 2.718282 0
w -183 0.367879 0
w 183 2.718282 0
w -184 0.367879 0
w 184 2.718282 0
w -185 0.367879 0
w 185 2.718282 0
w -186 0.367879 0
w 186 2.718282 0
w -187 0.367879 0
w 187 2.718282 0
w -188 0.367879 0
w 188 2.718282 0
w -189 0.367879 0
w 189 2.718282 0
w -190 0.367879 0
w 190 2.718282 0
w -191 0.367879 0
w 191 2.718282 0
w -193 0.367879 0
w 193 2.718282 0
w -194 0.367879 0
w 194 2.718282 0
w -195 0.367879 0
w 195 2.718282 0
w -196 0.367879 0
w 196 2.718282 0
w -197 0.367879 0
w 197 2.718282 0
w -199 0.367879 0
w 199 2.718282 0
w -200 0.367879 0
w 200 2.718282 0
w -201 0.367879 0
w 201 2.718282 0
w -202 0.367879 0
w 202 2.718282 0
w -203 0.367879 0
w 203 2.718282 0
w -204 0.367879 0
w 204 2.718282 0
w -205 0.367879 0
w 205 2.718282 0
w -206 0.367879 0
w 206 2.718282 0
w -207 0.367879 0
w 207 2.718282 0
w -208 0.367879 0
w 208 2.718282 0
w -209 0.367879 0
w 209 2.718282 0
w -210 0.367879 0
w 210 2.718282 0
w -211 0.367879 0
w 211 2.718282 0
w -213 0.367879 0
w 213 2.718282 0
w -214 0.367879 0
w 214 2.718282 0
w -215 0.367879 0
w 215 2.718282 0
w -216 0.367879 0
w 216 2.718282 0
w -217 0.367879 0
w 217 2.718282 0
w -218 0.367879 0
w 218 2.718282 0
w -219 0.367879 0
w 219 2.718282 0
w -220 0.367879 0
w 220 2.718282 0
w -221 0.367879 0
w 221 2.718282 0
w -223 0.367879 0
w 223 2.718282 0
w -224 0.367879 0
w 224 2.718282 0
w -225 0.367879 0
w 225 2.718282 0
w -226 0.367879 0
w 226 2.718282 0
w -227 0.367879 0
w 227 2.718282 0
w -228 0.367879 0
w 228 2.718282 0
w -229 0.367879 0
w 229 2.718282 0
w -230 0.367879 0
w 230 2.718282 0
w -232 0.367879 0
w 232 2.718282 0
w -233 0.367879 0
w 233 2.718282 0
w -234 0.367879 0
w 234 2.718282 0
w -235 0.367879 0
w 235 2.718282 0
w -236 0.367879 0
w 236 2.718282 0
w -237 0.367879 0
w 237 2.718282 0
w -238 0.367879 0
w 238 2.718282 0
w -239 0.367879 0
w 239 2.718282 0
w -240 0.367879 0
w 240 2.718282 0
w -241 0.367879 0
w 241 2.718282 0
w -242 0.367879 0
w 242 2.718282 0
w -244 0.367879 0
w 244 2.718282 0
w -245 0.367879 0
w 245 2.718282 0
w -246 0.367879 0
w 246 2.718282 0
w -247 0.367879 0
w 247 2.718282 0
w -248 0.367879 0
w 248 2.718282 0
w -249 0.367879 0
w 249 2.718282 0
w -250 0.367879 0
w 250 2.718282 0
w -251 0.367879 0
w 251 2.718282 0
w -252 0.367879 0
w 252 2.718282 0
w -253 0.367879 0
w 253 2.718282 0
w -254 0.367879 0
w 254 2.718282 0
w -255 0.367879 0
w 255 2.718282 0
w -257 0.367879 0
w 257 2.718282 0
w -258 0.367879 0
w 258 2.718282 0
w -259 0.367879 0
w 259 2.718282 0
w -260 0.367879 0
w 260 2.718282 0
w -261 0.367879 0
w 261 2.718282 0
w -262 0.367879 0
w 262 2.718282 0
w -263 0.367879 0
w 263 2.718282 0
w -264 0.367879 0
w 264 2.718282 0
w -265 0.367879 0
w 265 2.718282 0
w -266 0.367879 0
w 266 2.718282 0
w -267 0.367879 0
w 267 2.718282 0
w -269 0.367879 0
w 269 2.718282 0
w -270 0.367879 0
w 270 2.718282 0
w -271 0.367879 0
w 271 2.718282 0
w -272 0.367879 0
w 272 2.718282 0
w -273 0.367879 0
w 273 2.718282 0
w -274 0.367879 0
w 274 2.718282 0
w -275 0.367879 0
w 275 2.718282 0
w -276 0.367879 0
w 276 2.718282 0
w -277 0.367879 0
w 277 2.718282 0
w -279 0.367879 0
w 279 2.718282 0
w -280 0.367879 0
w 280 2.718282 0
w -281 0.367879 0
w 281 2.718282 0
w -282 0.367879 0
w 282 2.718282 0
w -283 0.367879 0
w 283 2.718282 0
w -284 0.367879 0
w 284 2.718282 0
w -285 0.367879 0
w 285 2.718282 0
w -287 0.367879 0
w 287 2.718282 0
w -288 0.367879 0
w 288 2.718282 0
w -289 0.367879 0
w 289 2.718282 0
w -290 0.367879 0
w 290 2.718282 0
w -291 0.367879 0
w 291 2.718282 0
w -292 0.367879 0
w 292 2.718282 0
w -294 0.367879 0
w 294 2.718282 0
w -295 0.367879 0
w 295 2.718282 0
w -296 0.367879 0
w 296 2.718282 0
w -297 0.367879 0
w 297 2.718282 0
w -298 0.367879 0
w 298 2.718282 0
w -299 0.367879 0
w 299 2.718282 0
w -300 0.367879 0
w 300 2.718282 0
w -302 0.367879 0
w 302 2.718282 0
w -303 0.367879 0
w 303 2.718282 0
w -304 0.367879 0
w 304 2.718282 0
w -305 0.367879 0
w 305 2.718282 0
w -306 0.367879 0
w 306 2.718282 0
w -307 0.367879 0
w 307 2.718282 0
w -308 0.367879 0
w 308 2.718282 0
w -309 0.367879 0
w 309 2.718282 0
w -310 0.367879 0
w 310 2.718282 0
w -312 0.367879 0
w 312 2.718282 0
w -313 0.367879 0
w 313 2.718282 0
w -314 0.367879 0
w 314 2.718282 0
w -315 0.367879 0
w 315 2.718282 0
w -316 0.367879 0
w 316 2.718282 0
w -318 0.367879 0
w 318 2.718282 0
w -319 0.367879 0
w 319 2.718282 0
w -320 0.367879 0
w 320 2.718282 0
w -321 0.367879 0
w 321 2.718282 0
w -322 0.367879 0
w 322 2.718282 0
w -323 0.367879 0
w 323 2.718282 0
w -324 0.367879 0
w 324 2.718282 0
w -325 0.367879 0
w 325 2.718282 0
w -326 0.367879 0
w 326 2.718282 0
w -327 0.367879 0
w 327 2.718282 0
w -329 0.367879 0
w 329 2.718282 0
w -330 0.367879 0
w 330 2.718282 0
w -331 0.367879 0
w 331 2.718282 0
w -332 0.367879 0
w 332 2.718282 0
w -333 0.367879 0
w 333 2.718282 0
w -334 0.367879 0
w 334 2.718282 0
w -336 0.367879 0
w 336 2.718282 0
w -337 0.367879 0
w 337 2.718282 0
w -338 0.367879 0
w 338 2.718282 0
w -339 0.367879 0
w 339 2.718282 0
w -341 0.367879 0
w 341 2.718282 0
w -342 0.367879 0
w 342 2.718282 0
w -343 0.367879 0
w 343 2.718282 0
w -344 0.367879 0
w 344 2.718282 0
w -345 0.367879 0
w 345 2.718282 0
w -347 0.367879 0
w 347 2.718282 0
w -348 0.367879 0
w 348 2.718282 0
w -349 0.367879 0
w 349 2.718282 0
w -350 0.367879 0
w 350 2.718282 0
w -351 0.367879 0
w 351 2.718282 0
w -352 0.367879 0
w 352 2.718282 0
w -353 0.367879 0
w 353 2.718282 0
w -354 0.367879 0
w 354 2.718282 0
w -355 0.367879 0
w 355 2.718282 0
w -357 0.367879 0
w 357 2.718282 0
w -358 0.367879 0
w 358 2.718282 0
w -359 0.367879 0
w 359 2.718282 0
w -360 0.367879 0
w 360 2.718282 0
w -361 0.367879 0
w 361 2.718282 0
w -362 0.367879 0
w 362 2.718282 0
w -363 0.367879 0
w 363 2.718282 0
w -364 0.367879 0
w 364 2.718282 0
w -365 0.367879 0
w 365 2.718282 0
w -366 0.367879 0
w 366 2.718282 0
w -367 0.367879 0
w 367 2.718282 0
w -368 0.367879 0
w 368 2.718282 0
w -370 0.367879 0
w 370 2.718282 0
w -371 0.367879 0
w 371 2.718282 0
w -372 0.367879 0
w 372 2.718282 0
w -373 0.367879 0
w 373 2.718282 0
w -374 0.367879 0
w 374 2.718282 0
w -375 0.367879 0
w 375 2.718282 0
w -377 0.367879 0
w 377 2.718282 0
w -378 0.367879 0
w 378 2.718282 0
w -379 0.367879 0
w 379 2.718282 0
w -380 0.367879 0
w 380 2.718282 0
w -382 0.367879 0
w 382 2.718282 0
w -383 0.367879 0
w 383 2.718282 0
w -384 0.367879 0
w 384 2.718282 0
w -385 0.367879 0
w 385 2.718282 0
w -386 0.367879 0
w 386 2.718282 0
w -387 0.367879 0
w 387 2.718282 0
w -389 0.367879 0
w 389 2.718282 0
w -390 0.367879 0
w 390 2.718282 0
w -391 0.367879 0
w 391 2.718282 0
w -392 0.367879 0
w 392 2.718282 0
w -393 0.367879 0
w 393 2.718282 0
w -395 0.367879 0
w 395 2.718282 0
w -396 0.367879 0
w 396 2.718282 0
w -398 0.367879 0
w 398 2.718282 0
w -399 0.367879 0
w 399 2.718282 0
w -400 0.367879 0
w 400 2.718282 0
w -401 0.367879 0
w 401 2.718282 0
w -403 0.367879 0
w 403 2.718282 0
w -404 0.367879 0
w 404 2.718282 0
w -405 0.367879 0
w 405 2.718282 0
w -406 0.367879 0
w 406 2.718282 0
w -408 0.367879 0
w 408 2.718282 0
w -409 0.367879 0
w 409 2.718282 0
w -410 0.367879 0
w 410 2.718282 0
w -411 0.367879 0
w 411 2.718282 0
w -413 0.367879 0
w 413 2.718282 0
w -414 0.367879 0
w 414 2.718282 0
w -416 0.367879 0
w 416 2.718282 0
w -418 0.367879 0
w 418 2.718282 0
w -419 0.367879 0
w 419 2.718282 0
w -421 0.367879 0
w 421 2.718282 0
w -423 0.367879 0
w 423 2.718282 0
w -424 0.367879 0
w 424 2.718282 0
w -426 0.367879 0
w 426 2.718282 0
w -427 0.367879 0
w 427 2.718282 0
w -429 0.367879 0
w 429 2.718282 0
w -431 0.367879 0
w 431 2.718282 0
w -433 0.367879 0
w 433 2.718282 0
2 1 21 0
2 -1 -21 0
-2 1 -21 0
-2 -1 21 0
3 1 51 0
3 -1 -51 0
-3 1 -51 0
-3 -1 51 0
4 1 102 0
4 -1 -102 0
-4 1 -102 0
-4 -1 102 0
5 1 153 0
5 -1 -153 0
-5 1 -153 0
-5 -1 153 0
6 1 198 0
6 -1 -198 0
-6 1 -198 0
-6 -1 198 0
7 1 222 0
7 -1 -222 0
-7 1 -222 0
-7 -1 222 0
8 1 256 0
8 -1 -256 0
-8 1 -256 0
-8 -1 256 0
9 1 268 0
9 -1 -268 0
-9 1 -268 0
-9 -1 268 0
10 1 286 0
10 -1 -286 0
-10 1 -286 0
-10 -1 286 0
11 1 293 0
11 -1 -293 0
-11 1 -293 0
-11 -1 293 0
12 1 317 0
12 -1 -317 0
-12 1 -317 0
-12 -1 317 0
13 1 356 0
13 -1 -356 0
-13 1 -356 0
-13 -1 356 0
14 1 369 0
14 -1 -369 0
-14 1 -369 0
-14 -1 369 0
15 1 388 0
15 -1 -388 0
-15 1 -388 0
-15 -1 388 0
16 1 407 0
16 -1 -407 0
-16 1 -407 0
-16 -1 407 0
17 1 412 0
17 -1 -412 0
-17 1 -412 0
-17 -1 412 0
18 1 425 0
18 -1 -425 0
-18 1 -425 0
-18 -1 425 0
19 1 428 0
19 -1 -428 0
-19 1 -428 0
-19 -1 428 0
20 1 432 0
20 -1 -432 0
-20 1 -432 0
-20 -1 432 0
22 21 81 0
22 -21 -81 0
-22 21 -81 0
-22 -21 81 0
23 21 122 0
23 -21 -122 0
-23 21 -122 0
-23 -21 122 0
24 21 212 0
24 -21 -212 0
-24 21 -212 0
-24 -21 212 0
25 21 243 0
25 -21 -243 0
-25 21 -243 0
-25 -21 243 0
26 21 268 0
26 -21 -268 0
-26 21 -268 0
-26 -21 268 0
27 21 278 0
27 -21 -278 0
-27 21 -278 0
-27 -21 278 0
28 21 286 0
28 -21 -286 0
-28 21 -286 0
-28 -21 286 0
29 21 328 0
29 -21 -328 0
-29 21 -328 0
-29 -21 328 0
30 21 394 0
30 -21 -394 0
-30 21 -394 0
-30 -21 394 0
31 21 402 0
31 -21 -402 0
-31 21 -402 0
-31 -21 402 0
32 21 407 0
32 -21 -407 0
-32 21 -407 0
-32 -21 407 0
33 21 420 0
33 -21 -420 0
-33 21 -420 0
-33 -21 420 0
34 21 425 0
34 -21 -425 0
-34 21 -425 0
-34 -21 425 0
36 35 51 0
36 -35 -51 0
-36 35 -51 0
-36 -35 51 0
37 35 66 0
37 -35 -66 0
-37 35 -66 0
-37 -35 66 0
38 35 122 0
38 -35 -122 0
-38 35 -122 0
-38 -35 122 0
39 35 141 0
39 -35 -141 0
-39 35 -141 0
-39 -35 141 0
40 35 153 0
40 -35 -153 0
-40 35 -153 0
-40 -35 153 0
41 35 164 0
41 -35 -164 0
-41 35 -164 0
-41 -35 164 0
42 35 256 0
42 -35 -256 0
-42 35 -256 0
-42 -35 256 0
43 35 293 0
43 -35 -293 0
-43 35 -293 0
-43 -35 293 0
44 35 301 0
44 -35 -301 0
-44 35 -301 0
-44 -35 301 0
45 35 335 0
45 -35 -335 0
-45 35 -335 0
-45 -35 335 0
46 35 376 0
46 -35 -376 0
-46 35 -376 0
-46 -35 376 0
47 35 402 0
47 -35 -402 0
-47 35 -402 0
-47 -35 402 0
48 35 412 0
48 -35 -412 0
-48 35 -412 0
-48 -35 412 0
49 35 428 0
49 -35 -428 0
-49 35 -428 0
-49 -35 428 0
50 35 432 0
50 -35 -432 0
-50 35 -432 0
-50 -35 432 0
52 51 66 0
52 -51 -66 0
-52 51 -66 0
-52 -51 66 0
53 51 95 0
53 -51 -95 0
-53 51 -95 0
-53 -51 95 0
54 51 122 0
54 -51 -122 0
-54 51 -122 0
-54 -51 122 0
55 51 141 0
55 -51 -141 0
-55 51 -141 0
-55 -51 141 0
56 51 153 0
56 -51 -153 0
-56 51 -153 0
-56 -51 153 0
57 51 222 0
57 -51 -222 0
-57 51 -222 0
-57 -51 222 0
58 51 256 0
58 -51 -256 0
-58 51 -256 0
-58 -51 256 0
59 51 268 0
59 -51 -268 0
-59 51 -268 0
-59 -51 268 0
60 51 369 0
60 -51 -369 0
-60 51 -369 0
-60 -51 369 0
61 51 376 0
61 -51 -376 0
-61 51 -376 0
-61 -51 376 0
62 51 381 0
62 -51 -381 0
-62 51 -381 0
-62 -51 381 0
63 51 402 0
63 -51 -402 0
-63 51 -402 0
-63 -51 402 0
64 51 422 0
64 -51 -422 0
-64 51 -422 0
-64 -51 422 0
65 51 425 0
65 -51 -425 0
-65 51 -425 0
-65 -51 425 0
67 66 81 0
67 -66 -81 0
-67 66 -81 0
-67 -66 81 0
68 66 95 0
68 -66 -95 0
-68 66 -95 0
-68 -66 95 0
69 66 102 0
69 -66 -102 0
-69 66 -102 0
-69 -66 102 0
70 66 141 0
70 -66 -141 0
-70 66 -141 0
-70 -66 141 0
71 66 212 0
71 -66 -212 0
-71 66 -212 0
-71 -66 212 0
72 66 268 0
72 -66 -268 0
-72 66 -268 0
-72 -66 268 0
73 66 286 0
73 -66 -286 0
-73 66 -286 0
-73 -66 286 0
74 66 301 0
74 -66 -301 0
-74 66 -301 0
-74 -66 301 0
75 66 369 0
75 -66 -369 0
-75 66 -369 0
-75 -66 369 0
76 66 376 0
76 -66 -376 0
-76 66 -376 0
-76 -66 376 0
77 66 415 0
77 -66 -415 0
-77 66 -415 0
-77 -66 415 0
78 66 417 0
78 -66 -417 0
-78 66 -417 0
-78 -66 417 0
79 66 420 0
79 -66 -420 0
-79 66 -420 0
-79 -66 420 0
80 66 425 0
80 -66 -425 0
-80 66 -425 0
-80 -66 425 0
82 81 192 0
82 -81 -192 0
-82 81 -192 0
-82 -81 192 0
83 81 198 0
83 -81 -198 0
-83 81 -198 0
-83 -81 198 0
84 81 268 0
84 -81 -268 0
-84 81 -268 0
-84 -81 268 0
85 81 293 0
85 -81 -293 0
-85 81 -293 0
-85 -81 293 0
86 81 311 0
86 -81 -311 0
-86 81 -311 0
-86 -81 311 0
87 81 328 0
87 -81 -328 0
-87 81 -328 0
-87 -81 328 0
88 81 356 0
88 -81 -356 0
-88 81 -356 0
-88 -81 356 0
89 81 369 0
89 -81 -369 0
-89 81 -369 0
-89 -81 369 0
90 81 402 0
90 -81 -402 0
-90 81 -402 0
-90 -81 402 0
91 81 412 0
91 -81 -412 0
-91 81 -412 0
-91 -81 412 0
92 81 430 0
92 -81 -430 0
-92 81 -430 0
-92 -81 430 0
93 81 432 0
93 -81 -432 0
-93 81 -432 0
-93 -81 432 0
94 81 434 0
94 -81 -434 0
-94 81 -434 0
-94 -81 434 0
96 95 141 0
96 -95 -141 0
-96 95 -141 0
-96 -95 141 0
97 95 222 0
97 -95 -222 0
-97 95 -222 0
-97 -95 222 0
98 95 328 0
98 -95 -328 0
-98 95 -328 0
-98 -95 328 0
99 95 381 0
99 -95 -381 0
-99 95 -381 0
-99 -95 381 0
100 95 417 0
100 -95 -417 0
-100 95 -417 0
-100 -95 417 0
101 95 428 0
101 -95 -428 0
-101 95 -428 0
-101 -95 428 0
103 102 141 0
103 -102 -141 0
-103 102 -141 0
-103 -102 141 0
104 102 177 0
104 -102 -177 0
-104 102 -177 0
-104 -102 177 0
105 102 192 0
105 -102 -192 0
-105 102 -192 0
-105 -102 192 0
106 102 198 0
106 -102 -198 0
-106 102 -198 0
-106 -102 198 0
107 102 212 0
107 -102 -212 0
-107 102 -212 0
-107 -102 212 0
108 102 222 0
108 -102 -222 0
-108 102 -222 0
-108 -102 222 0
109 102 268 0
109 -102 -268 0
-109 102 -268 0
-109 -102 268 0
110 102 286 0
110 -102 -286 0
-110 102 -286 0
-110 -102 286 0
111 102 293 0
111 -102 -293 0
-111 102 -293 0
-111 -102 293 0
112 102 301 0
112 -102 -301 0
-112 102 -301 0
-112 -102 301 0
113 102 311 0
113 -102 -311 0
-113 102 -311 0
-113 -102 311 0
114 102 340 0
114 -102 -340 0
-114 102 -340 0
-114 -102 340 0
115 102 376 0
115 -102 -376 0
-115 102 -376 0
-115 -102 376 0
116 102 417 0
116 -102 -417 0
-116 102 -417 0
-116 -102 417 0
117 102 422 0
117 -102 -422 0
-117 102 -422 0
-117 -102 422 0
118 102 425 0
118 -102 -425 0
-118 102 -425 0
-118 -102 425 0
119 102 428 0
119 -102 -428 0
-119 102 -428 0
-119 -102 428 0
120 102 432 0
120 -102 -432 0
-120 102 -432 0
-120 -102 432 0
121 102 434 0
121 -102 -434 0
-121 102 -434 0
-121 -102 434 0
123 122 141 0
123 -122 -141 0
-123 122 -141 0
-123 -122 141 0
124 122 153 0
124 -122 -153 0
-124 122 -153 0
-124 -122 153 0
125 122 164 0
125 -122 -164 0
-125 122 -164 0
-125 -122 164 0
126 122 177 0
126 -122 -177 0
-126 122 -177 0
-126 -122 177 0
127 122 212 0
127 -122 -212 0
-127 122 -212 0
-127 -122 212 0
128 122 222 0
128 -122 -222 0
-128 122 -222 0
-128 -122 222 0
129 122 256 0
129 -122 -256 0
-129 122 -256 0
-129 -122 256 0
130 122 268 0
130 -122 -268 0
-130 122 -268 0
-130 -122 268 0
131 122 293 0
131 -122 -293 0
-131 122 -293 0
-131 -122 293 0
132 122 317 0
132 -122 -317 0
-132 122 -317 0
-132 -122 317 0
133 122 328 0
133 -122 -328 0
-133 122 -328 0
-133 -122 328 0
134 122 335 0
134 -122 -335 0
-134 122 -335 0
-134 -122 335 0
135 122 356 0
135 -122 -356 0
-135 122 -356 0
-135 -122 356 0
136 122 394 0
136 -122 -394 0
-136 122 -394 0
-136 -122 394 0
137 122 397 0
137 -122 -397 0
-137 122 -397 0
-137 -122 397 0
138 122 425 0
138 -122 -425 0
-138 122 -425 0
-138 -122 425 0
139 122 428 0
139 -122 -428 0
-139 122 -428 0
-139 -122 428 0
140 122 430 0
140 -122 -430 0
-140 122 -430 0
-140 -122 430 0
142 141 153 0
142 -141 -153 0
-142 141 -153 0
-142 -141 153 0
143 141 231 0
143 -141 -231 0
-143 141 -231 0
-143 -141 231 0
144 141 301 0
144 -141 -301 0
-144 141 -301 0
-144 -141 301 0
145 141 340 0
145 -141 -340 0
-145 141 -340 0
-145 -141 340 0
146 141 356 0
146 -141 -356 0
-146 141 -356 0
-146 -141 356 0
147 141 397 0
147 -141 -397 0
-147 141 -397 0
-147 -141 397 0
148 141 402 0
148 -141 -402 0
-148 141 -402 0
-148 -141 402 0
149 141 415 0
149 -141 -415 0
-149 141 -415 0
-149 -141 415 0
150 141 420 0
150 -141 -420 0
-150 141 -420 0
-150 -141 420 0
151 141 428 0
151 -141 -428 0
-151 141 -428 0
-151 -141 428 0
152 141 430 0
152 -141 -430 0
-152 141 -430 0
-152 -141 430 0
154 153 164 0
154 -153 -164 0
-154 153 -164 0
-154 -153 164 0
155 153 222 0
155 -153 -222 0
-155 153 -222 0
-155 -153 222 0
156 153 231 0
156 -153 -231 0
-156 153 -231 0
-156 -153 231 0
157 153 243 0
157 -153 -243 0
-157 153 -243 0
-157 -153 243 0
158 153 268 0
158 -153 -268 0
-158 153 -268 0
-158 -153 268 0
159 153 293 0
159 -153 -293 0
-159 153 -293 0
-159 -153 293 0
160 153 376 0
160 -153 -376 0
-160 153 -376 0
-160 -153 376 0
161 153 388 0
161 -153 -388 0
-161 153 -388 0
-161 -153 388 0
162 153 397 0
162 -153 -397 0
-162 153 -397 0
-162 -153 397 0
163 153 407 0
163 -153 -407 0
-163 153 -407 0
-163 -153 407 0
165 164 177 0
165 -164 -177 0
-165 164 -177 0
-165 -164 177 0
166 164 256 0
166 -164 -256 0
-166 164 -256 0
-166 -164 256 0
167 164 286 0
167 -164 -286 0
-167 164 -286 0
-167 -164 286 0
168 164 335 0
168 -164 -335 0
-168 164 -335 0
-168 -164 335 0
169 164 369 0
169 -164 -369 0
-169 164 -369 0
-169 -164 369 0
170 164 376 0
170 -164 -376 0
-170 164 -376 0
-170 -164 376 0
171 164 381 0
171 -164 -381 0
-171 164 -381 0
-171 -164 381 0
172 164 415 0
172 -164 -415 0
-172 164 -415 0
-172 -164 415 0
173 164 417 0
173 -164 -417 0
-173 164 -417 0
-173 -164 417 0
174 164 420 0
174 -164 -420 0
-174 164 -420 0
-174 -164 420 0
175 164 430 0
175 -164 -430 0
-175 164 -430 0
-175 -164 430 0
176 164 432 0
176 -164 -432 0
-176 164 -432 0
-176 -164 432 0
178 177 198 0
178 -177 -198 0
-178 177 -198 0
-178 -177 198 0
179 177 256 0
179 -177 -256 0
-179 177 -256 0
-179 -177 256 0
180 177 293 0
180 -177 -293 0
-180 177 -293 0
-180 -177 293 0
181 177 328 0
181 -177 -328 0
-181 177 -328 0
-181 -177 328 0
182 177 340 0
182 -177 -340 0
-182 177 -340 0
-182 -177 340 0
183 177 346 0
183 -177 -346 0
-183 177 -346 0
-183 -177 346 0
184 177 356 0
184 -177 -356 0
-184 177 -356 0
-184 -177 356 0
185 177 369 0
185 -177 -369 0
-185 177 -369 0
-185 -177 369 0
186 177 397 0
186 -177 -397 0
-186 177 -397 0
-186 -177 397 0
187 177 417 0
187 -177 -417 0
-187 177 -417 0
-187 -177 417 0
188 177 422 0
188 -177 -422 0
-188 177 -422 0
-188 -177 422 0
189 177 428 0
189 -177 -428 0
-189 177 -428 0
-189 -177 428 0
190 177 430 0
190 -177 -430 0
-190 177 -430 0
-190 -177 430 0
191 177 432 0
191 -177 -432 0
-191 177 -432 0
-191 -177 432 0
193 192 286 0
193 -192 -286 0
-193 192 -286 0
-193 -192 286 0
194 192 328 0
194 -192 -328 0
-194 192 -328 0
-194 -192 328 0
195 192 394 0
195 -192 -394 0
-195 192 -394 0
-195 -192 394 0
196 192 397 0
196 -192 -397 0
-196 192 -397 0
-196 -192 397 0
197 192 402 0
197 -192 -402 0
-197 192 -402 0
-197 -192 402 0
199 198 231 0
199 -198 -231 0
-199 198 -231 0
-199 -198 231 0
200 198 243 0
200 -198 -243 0
-200 198 -243 0
-200 -198 243 0
201 198 256 0
201 -198 -256 0
-201 198 -256 0
-201 -198 256 0
202 198 268 0
202 -198 -268 0
-202 198 -268 0
-202 -198 268 0
203 198 293 0
203 -198 -293 0
-203 198 -293 0
-203 -198 293 0
204 198 317 0
204 -198 -317 0
-204 198 -317 0
-204 -198 317 0
205 198 328 0
205 -198 -328 0
-205 198 -328 0
-205 -198 328 0
206 198 356 0
206 -198 -356 0
-206 198 -356 0
-206 -198 356 0
207 198 369 0
207 -198 -369 0
-207 198 -369 0
-207 -198 369 0
208 198 376 0
208 -198 -376 0
-208 198 -376 0
-208 -198 376 0
209 198 407 0
209 -198 -407 0
-209 198 -407 0
-209 -198 407 0
210 198 430 0
210 -198 -430 0
-210 198 -430 0
-210 -198 430 0
211 198 434 0
211 -198 -434 0
-211 198 -434 0
-211 -198 434 0
213 212 222 0
213 -212 -222 0
-213 212 -222 0
-213 -212 222 0
214 212 293 0
214 -212 -293 0
-214 212 -293 0
-214 -212 293 0
215 212 311 0
215 -212 -311 0
-215 212 -311 0
-215 -212 311 0
216 212 369 0
216 -212 -369 0
-216 212 -369 0
-216 -212 369 0
217 212 376 0
217 -212 -376 0
-217 212 -376 0
-217 -212 376 0
218 212 388 0
218 -212 -388 0
-218 212 -388 0
-218 -212 388 0
219 212 425 0
219 -212 -425 0
-219 212 -425 0
-219 -212 425 0
220 212 430 0
220 -212 -430 0
-220 212 -430 0
-220 -212 430 0
221 212 432 0
221 -212 -432 0
-221 212 -432 0
-221 -212 432 0
223 222 231 0
223 -222 -231 0
-223 222 -231 0
-223 -222 231 0
224 222 278 0
224 -222 -278 0
-224 222 -278 0
-224 -222 278 0
225 222 286 0
225 -222 -286 0
-225 222 -286 0
-225 -222 286 0
226 222 328 0
226 -222 -328 0
-226 222 -328 0
-226 -222 328 0
227 222 356 0
227 -222 -356 0
-227 222 -356 0
-227 -222 356 0
228 222 397 0
228 -222 -397 0
-228 222 -397 0
-228 -222 397 0
229 222 415 0
229 -222 -415 0
-229 222 -415 0
-229 -222 415 0
230 222 430 0
230 -222 -430 0
-230 222 -430 0
-230 -222 430 0
232 231 278 0
232 -231 -278 0
-232 231 -278 0
-232 -231 278 0
233 231 286 0
233 -231 -286 0
-233 231 -286 0
-233 -231 286 0
234 231 317 0
234 -231 -317 0
-234 231 -317 0
-234 -231 317 0
235 231 381 0
235 -231 -381 0
-235 231 -381 0
-235 -231 381 0
236 231 397 0
236 -231 -397 0
-236 231 -397 0
-236 -231 397 0
237 231 402 0
237 -231 -402 0
-237 231 -402 0
-237 -231 402 0
238 231 407 0
238 -231 -407 0
-238 231 -407 0
-238 -231 407 0
239 231 417 0
239 -231 -417 0
-239 231 -417 0
-239 -231 417 0
240 231 420 0
240 -231 -420 0
-240 231 -420 0
-240 -231 420 0
241 231 430 0
241 -231 -430 0
-241 231 -430 0
-241 -231 430 0
242 231 434 0
242 -231 -434 0
-242 231 -434 0
-242 -231 434 0
244 243 268 0
244 -243 -268 0
-244 243 -268 0
-244 -243 268 0
245 243 278 0
245 -243 -278 0
-245 243 -278 0
-245 -243 278 0
246 243 301 0
246 -243 -301 0
-246 243 -301 0
-246 -243 301 0
247 243 317 0
247 -243 -317 0
-247 243 -317 0
-247 -243 317 0
248 243 335 0
248 -243 -335 0
-248 243 -335 0
-248 -243 335 0
249 243 369 0
249 -243 -369 0
-249 243 -369 0
-249 -243 369 0
250 243 381 0
250 -243 -381 0
-250 243 -381 0
-250 -243 381 0
251 243 394 0
251 -243 -394 0
-251 243 -394 0
-251 -243 394 0
252 243 397 0
252 -243 -397 0
-252 243 -397 0
-252 -243 397 0
253 243 415 0
253 -243 -415 0
-253 243 -415 0
-253 -243 415 0
254 243 425 0
254 -243 -425 0
-254 243 -425 0
-254 -243 425 0
255 243 432 0
255 -243 -432 0
-255 243 -432 0
-255 -243 432 0
257 256 278 0
257 -256 -278 0
-257 256 -278 0
-257 -256 278 0
258 256 317 0
258 -256 -317 0
-258 256 -317 0
-258 -256 317 0
259 256 335 0
259 -256 -335 0
-259 256 -335 0
-259 -256 335 0
260 256 346 0
260 -256 -346 0
-260 256 -346 0
-260 -256 346 0
261 256 356 0
261 -256 -356 0
-261 256 -356 0
-261 -256 356 0
262 256 369 0
262 -256 -369 0
-262 256 -369 0
-262 -256 369 0
263 256 394 0
263 -256 -394 0
-263 256 -394 0
-263 -256 394 0
264 256 420 0
264 -256 -420 0
-264 256 -420 0
-264 -256 420 0
265 256 422 0
265 -256 -422 0
-265 256 -422 0
-265 -256 422 0
266 256 428 0
266 -256 -428 0
-266 256 -428 0
-266 -256 428 0
267 256 430 0
267 -256 -430 0
-267 256 -430 0
-267 -256 430 0
269 268 278 0
269 -268 -278 0
-269 268 -278 0
-269 -268 278 0
270 268 301 0
270 -268 -301 0
-270 268 -301 0
-270 -268 301 0
271 268 340 0
271 -268 -340 0
-271 268 -340 0
-271 -268 340 0
272 268 346 0
272 -268 -346 0
-272 268 -346 0
-272 -268 346 0
273 268 394 0
273 -268 -394 0
-273 268 -394 0
-273 -268 394 0
274 268 420 0
274 -268 -420 0
-274 268 -420 0
-274 -268 420 0
275 268 425 0
275 -268 -425 0
-275 268 -425 0
-275 -268 425 0
276 268 428 0
276 -268 -428 0
-276 268 -428 0
-276 -268 428 0
277 268 430 0
277 -268 -430 0
-277 268 -430 0
-277 -268 430 0
279 278 286 0
279 -278 -286 0
-279 278 -286 0
-279 -278 286 0
280 278 317 0
280 -278 -317 0
-280 278 -317 0
-280 -278 317 0
281 278 388 0
281 -278 -388 0
-281 278 -388 0
-281 -278 388 0
282 278 397 0
282 -278 -397 0
-282 278 -397 0
-282 -278 397 0
283 278 412 0
283 -278 -412 0
-283 278 -412 0
-283 -278 412 0
284 278 415 0
284 -278 -415 0
-284 278 -415 0
-284 -278 415 0
285 278 420 0
285 -278 -420 0
-285 278 -420 0
-285 -278 420 0
287 286 346 0
287 -286 -346 0
-287 286 -346 0
-287 -286 346 0
288 286 356 0
288 -286 -356 0
-288 286 -356 0
-288 -286 356 0
289 286 369 0
289 -286 -369 0
-289 286 -369 0
-289 -286 369 0
290 286 376 0
290 -286 -376 0
-290 286 -376 0
-290 -286 376 0
291 286 381 0
291 -286 -381 0
-291 286 -381 0
-291 -286 381 0
292 286 388 0
292 -286 -388 0
-292 286 -388 0
-292 -286 388 0
294 293 340 0
294 -293 -340 0
-294 293 -340 0
-294 -293 340 0
295 293 356 0
295 -293 -356 0
-295 293 -356 0
-295 -293 356 0
296 293 388 0
296 -293 -388 0
-296 293 -388 0
-296 -293 388 0
297 293 394 0
297 -293 -394 0
-297 293 -394 0
-297 -293 394 0
298 293 422 0
298 -293 -422 0
-298 293 -422 0
-298 -293 422 0
299 293 425 0
299 -293 -425 0
-299 293 -425 0
-299 -293 425 0
300 293 432 0
300 -293 -432 0
-300 293 -432 0
-300 -293 432 0
302 301 340 0
302 -301 -340 0
-302 301 -340 0
-302 -301 340 0
303 301 369 0
303 -301 -369 0
-303 301 -369 0
-303 -301 369 0
304 301 376 0
304 -301 -376 0
-304 301 -376 0
-304 -301 376 0
305 301 381 0
305 -301 -381 0
-305 301 -381 0
-305 -301 381 0
306 301 397 0
306 -301 -397 0
-306 301 -397 0
-306 -301 397 0
307 301 402 0
307 -301 -402 0
-307 301 -402 0
-307 -301 402 0
308 301 407 0
308 -301 -407 0
-308 301 -407 0
-308 -301 407 0
309 301 417 0
309 -301 -417 0
-309 301 -417 0
-309 -301 417 0
310 301 432 0
310 -301 -432 0
-310 301 -432 0
-310 -301 432 0
312 311 328 0
312 -311 -328 0
-312 311 -328 0
-312 -311 328 0
313 311 356 0
313 -311 -356 0
-313 311 -356 0
-313 -311 356 0
314 311 381 0
314 -311 -381 0
-314 311 -381 0
-314 -311 381 0
315 311 430 0
315 -311 -430 0
-315 311 -430 0
-315 -311 430 0
316 311 432 0
316 -311 -432 0
-316 311 -432 0
-316 -311 432 0
318 317 328 0
318 -317 -328 0
-318 317 -328 0
-318 -317 328 0
319 317 335 0
319 -317 -335 0
-319 317 -335 0
-319 -317 335 0
320 317 340 0
320 -317 -340 0
-320 317 -340 0
-320 -317 340 0
321 317 356 0
321 -317 -356 0
-321 317 -356 0
-321 -317 356 0
322 317 369 0
322 -317 -369 0
-322 317 -369 0
-322 -317 369 0
323 317 394 0
323 -317 -394 0
-323 317 -394 0
-323 -317 394 0
324 317 402 0
324 -317 -402 0
-324 317 -402 0
-324 -317 402 0
325 317 412 0
325 -317 -412 0
-325 317 -412 0
-325 -317 412 0
326 317 420 0
326 -317 -420 0
-326 317 -420 0
-326 -317 420 0
327 317 425 0
327 -317 -425 0
-327 317 -425 0
-327 -317 425 0
329 328 356 0
329 -328 -356 0
-329 328 -356 0
-329 -328 356 0
330 328 388 0
330 -328 -388 0
-330 328 -388 0
-330 -328 388 0
331 328 402 0
331 -328 -402 0
-331 328 -402 0
-331 -328 402 0
332 328 417 0
332 -328 -417 0
-332 328 -417 0
-332 -328 417 0
333 328 425 0
333 -328 -425 0
-333 328 -425 0
-333 -328 425 0
334 328 434 0
334 -328 -434 0
-334 328 -434 0
-334 -328 434 0
336 335 340 0
336 -335 -340 0
-336 335 -340 0
-336 -335 340 0
337 335 356 0
337 -335 -356 0
-337 335 -356 0
-337 -335 356 0
338 335 388 0
338 -335 -388 0
-338 335 -388 0
-338 -335 388 0
339 335 422 0
339 -335 -422 0
-339 335 -422 0
-339 -335 422 0
341 340 381 0
341 -340 -381 0
-341 340 -381 0
-341 -340 381 0
342 340 394 0
342 -340 -394 0
-342 340 -394 0
-342 -340 394 0
343 340 412 0
343 -340 -412 0
-343 340 -412 0
-343 -340 412 0
344 340 415 0
344 -340 -415 0
-344 340 -415 0
-344 -340 415 0
345 340 425 0
345 -340 -425 0
-345 340 -425 0
-345 -340 425 0
347 346 356 0
347 -346 -356 0
-347 346 -356 0
-347 -346 356 0
348 346 376 0
348 -346 -376 0
-348 346 -376 0
-348 -346 376 0
349 346 381 0
349 -346 -381 0
-349 346 -381 0
-349 -346 381 0
350 346 388 0
350 -346 -388 0
-350 346 -388 0
-350 -346 388 0
351 346 394 0
351 -346 -394 0
-351 346 -394 0
-351 -346 394 0
352 346 397 0
352 -346 -397 0
-352 346 -397 0
-352 -346 397 0
353 346 417 0
353 -346 -417 0
-353 346 -417 0
-353 -346 417 0
354 346 430 0
354 -346 -430 0
-354 346 -430 0
-354 -346 430 0
355 346 432 0
355 -346 -432 0
-355 346 -432 0
-355 -346 432 0
357 356 369 0
357 -356 -369 0
-357 356 -369 0
-357 -356 369 0
358 356 376 0
358 -356 -376 0
-358 356 -376 0
-358 -356 376 0
359 356 394 0
359 -356 -394 0
-359 356 -394 0
-359 -356 394 0
360 356 397 0
360 -356 -397 0
-360 356 -397 0
-360 -356 397 0
361 356 412 0
361 -356 -412 0
-361 356 -412 0
-361 -356 412 0
362 356 415 0
362 -356 -415 0
-362 356 -415 0
-362 -356 415 0
363 356 417 0
363 -356 -417 0
-363 356 -417 0
-363 -356 417 0
364 356 420 0
364 -356 -420 0
-364 356 -420 0
-364 -356 420 0
365 356 425 0
365 -356 -425 0
-365 356 -425 0
-365 -356 425 0
366 356 428 0
366 -356 -428 0
-366 356 -428 0
-366 -356 428 0
367 356 430 0
367 -356 -430 0
-367 356 -430 0
-367 -356 430 0
368 356 432 0
368 -356 -432 0
-368 356 -432 0
-368 -356 432 0
370 369 381 0
370 -369 -381 0
-370 369 -381 0
-370 -369 381 0
371 369 388 0
371 -369 -388 0
-371 369 -388 0
-371 -369 388 0
372 369 402 0
372 -369 -402 0
-372 369 -402 0
-372 -369 402 0
373 369 415 0
373 -369 -415 0
-373 369 -415 0
-373 -369 415 0
374 369 420 0
374 -369 -420 0
-374 369 -420 0
-374 -369 420 0
375 369 422 0
375 -369 -422 0
-375 369 -422 0
-375 -369 422 0
377 376 388 0
377 -376 -388 0
-377 376 -388 0
-377 -376 388 0
378 376 417 0
378 -376 -417 0
-378 376 -417 0
-378 -376 417 0
379 376 422 0
379 -376 -422 0
-379 376 -422 0
-379 -376 422 0
380 376 425 0
380 -376 -425 0
-380 376 -425 0
-380 -376 425 0
382 381 402 0
382 -381 -402 0
-382 381 -402 0
-382 -381 402 0
383 381 407 0
383 -381 -407 0
-383 381 -407 0
-383 -381 407 0
384 381 417 0
384 -381 -417 0
-384 381 -417 0
-384 -381 417 0
385 381 420 0
385 -381 -420 0
-385 381 -420 0
-385 -381 420 0
386 381 425 0
386 -381 -425 0
-386 381 -425 0
-386 -381 425 0
387 381 434 0
387 -381 -434 0
-387 381 -434 0
-387 -381 434 0
389 388 397 0
389 -388 -397 0
-389 388 -397 0
-389 -388 397 0
390 388 412 0
390 -388 -412 0
-390 388 -412 0
-390 -388 412 0
391 388 417 0
391 -388 -417 0
-391 388 -417 0
-391 -388 417 0
392 388 425 0
392 -388 -425 0
-392 388 -425 0
-392 -388 425 0
393 388 434 0
393 -388 -434 0
-393 388 -434 0
-393 -388 434 0
395 394 412 0
395 -394 -412 0
-395 394 -412 0
-395 -394 412 0
396 394 420 0
396 -394 -420 0
-396 394 -420 0
-396 -394 420 0
398 397 420 0
398 -397 -420 0
-398 397 -420 0
-398 -397 420 0
399 397 422 0
399 -397 -422 0
-399 397 -422 0
-399 -397 422 0
400 397 425 0
400 -397 -425 0
-400 397 -425 0
-400 -397 425 0
401 397 428 0
401 -397 -428 0
-401 397 -428 0
-401 -397 428 0
403 402 417 0
403 -402 -417 0
-403 402 -417 0
-403 -402 417 0
404 402 420 0
404 -402 -420 0
-404 402 -420 0
-404 -402 420 0
405 402 425 0
405 -402 -425 0
-405 402 -425 0
-405 -402 425 0
406 402 428 0
406 -402 -428 0
-406 402 -428 0
-406 -402 428 0
408 407 412 0
408 -407 -412 0
-408 407 -412 0
-408 -407 412 0
409 407 420 0
409 -407 -420 0
-409 407 -420 0
-409 -407 420 0
410 407 428 0
410 -407 -428 0
-410 407 -428 0
-410 -407 428 0
411 407 432 0
411 -407 -432 0
-411 407 -432 0
-411 -407 432 0
413 412 415 0
413 -412 -415 0
-413 412 -415 0
-413 -412 415 0
414 412 422 0
414 -412 -422 0
-414 412 -422 0
-414 -412 422 0
416 415 422 0
416 -415 -422 0
-416 415 -422 0
-416 -415 422 0
418 417 428 0
418 -417 -428 0
-418 417 -428 0
-418 -417 428 0
419 417 432 0
419 -417 -432 0
-419 417 -432 0
-419 -417 432 0
421 420 422 0
421 -420 -422 0
-421 420 -422 0
-421 -420 422 0
423 422 425 0
423 -422 -425 0
-423 422 -425 0
-423 -422 425 0
424 422 430 0
424 -422 -430 0
-424 422 -430 0
-424 -422 430 0
426 425 430 0
426 -425 -430 0
-426 425 -430 0
-426 -425 430 0
427 425 432 0
427 -425 -432 0
-427 425 -432 0
-427 -425 432 0
429 428 432 0
429 -428 -432 0
-429 428 -432 0
-429 -428 432 0
431 430 432 0
431 -430 -432 0
-431 430 -432 0
-431 -430 432 0
433 432 434 0
433 -432 -434 0
-433 432 -434 0
-433 -432 434 0
